100
100
100
99
98
97
96
95
94
94
94
93
93
93
92
92
92
91
90
90
89
88
88
87
86
85
85
85
84
83
83
83
79
78
78
78
77
77
77
76
74
74
73
72
72
71
71
70
70
69
68
67
65
64
64
63
61
61
60
59
59
58
57
57
56
55
55
55
54
54
54
54
52
52
51
51
49
46
46
46
45
44
43
41
40
39
38
37
35
35
32
32
32
30
30
30
29
28
27
23
22
20
